n=40;
demand=2;
horizon=40;
est=[33,20,18,17,38,8,12,3,9,35,5,24,35,26,34,0,20,30,16,11,0,14,19,32,8,2,23,26,21,39,27,3,22,36,20,7,6,25,9,8];
processing_time=[1,20,16,9,1,15,1,35,5,3,28,5,4,6,1,14,19,1,24,6,10,23,14,2,3,6,14,8,14,1,8,27,10,4,5,6,21,13,28,5];
lct=[35,40,40,39,40,39,14,40,36,40,34,30,40,37,36,36,39,31,40,22,29,38,35,40,13,20,39,37,38,40,36,34,40,40,32,14,36,40,40,40];
